unsat
(define-fun f ((x (_ BitVec 64))) (_ BitVec 64) (let ((_let_1 (arba x))) (im (bvand #b0000000000000000000000000000000000000000000000000000000000000001 _let_1) (shesh _let_1) (bvnot (bvand x _let_1)))))
475.80user 0.25system 7:56.08elapsed 99%CPU (0avgtext+0avgdata 496760maxresident)k
120inputs+8outputs (0major+132545minor)pagefaults 0swaps
